HfO2 monoclinic SG#14 12-atom biaxial factor=1.01000 dry-run
1.0
      0.00000000000000      5.12598211929480      0.00509169983558
      5.12598464811759      0.00000000000000      0.00000000000000
      0.00000000000000     -0.88883029470569     -5.24568296960786
  Hf  O
  4  8
Direct
    0.72397959320676    0.54249006250176    0.29237556989600
    0.27602040679324    0.04249006250175    0.20762443010400
    0.27602040679324    0.45750993749825    0.70762443010400
    0.72397959320676    0.95750993749824    0.79237556989600
    0.55150289783278    0.25749426938318    0.02172242966179
    0.44849710216722    0.75749426938318    0.47827757033821
    0.44849710216722    0.74250573061682    0.97827757033821
    0.55150289783278    0.24250573061682    0.52172242966179
    0.93152782606332    0.66900665795293    0.65350608013058
    0.06847217393667    0.16900665795293    0.84649391986942
    0.06847217393667    0.33099334204707    0.34649391986942
    0.93152782606332    0.83099334204707    0.15350608013058
