HfO2 orthorhombic SG#29 12-atom biaxial factor=0.99000 dry-run
1.0
      5.02448000162021      0.00000000000000      0.00000000000000
      0.00000000000000      5.02448000162021      0.00000000000000
      0.00000000000000      0.00000000000000      5.26964152457323
  Hf  O
  4  8
Direct
    0.26670228584870    0.24008499779615    0.03305983824457
    0.26670228584870    0.74008499779615    0.46694016175543
    0.73329771415130    0.24008499779615    0.53305983824457
    0.73329771415130    0.74008499779615    0.96694016175543
    0.06842140257135    0.38224956282770    0.36588282211807
    0.06842140257135    0.88224956282770    0.13411717788193
    0.46241054996262    0.49066543937616    0.73010528065444
    0.46241054996262    0.99066543937616    0.76989471934556
    0.53758945003738    0.99066543937616    0.26989471934556
    0.53758945003738    0.49066543937616    0.23010528065444
    0.93157859742865    0.38224956282770    0.86588282211807
    0.93157859742865    0.88224956282770    0.63411717788193
