HfO2 tetragonal SG#137 12-atom biaxial factor=0.99000 dry-run
1.0
      3.55284388108185      3.55284388108184      0.00000000000000
     -3.55284388108185      3.55284388108185      0.00000000000000
      0.00000000000000      0.00000000000000      5.23154449552582
  Hf  O
  4  8
Direct
    0.50000000000000    0.00000000000000    0.50000000000000
    0.00000000000000    0.50000000000000    0.50000000000000
    0.00000000000000    0.00000000000000    0.00000000000000
    0.50000000000000    0.50000000000000    0.00000000000000
    0.25000000000000    0.25000000000000    0.69442069312245
    0.75000000000000    0.75000000000000    0.69442069312245
    0.25000000000000    0.75000000000000    0.80557930687755
    0.75000000000000    0.25000000000000    0.80557930687755
    0.25000000000000    0.75000000000000    0.30557930687755
    0.75000000000000    0.25000000000000    0.30557930687755
    0.25000000000000    0.25000000000000    0.19442069312245
    0.75000000000000    0.75000000000000    0.19442069312245
